0 20 37 5 4 0
0 12 40 17 0
0 6 33 16 3 0
0 52 54 19 8 0
0 26 7 46 34 0
0 43 42 41 56 23 0
0 44 50 18 24 49 0
0 27 13 57 15 0
0 11 38 10 0
0 30 48 29 45 0
0 28 21 36 47 0
0 35 14 59 53 0
0 32 9 39 0
0 58 31 55 25 0
0 51 1 22 2 0
